(set-info :smt-lib-version 2.6)
(set-logic QF_NIA)
(set-info :source |
Generated by: Cristina Borralleras, Daniel Larraz, Albert Oliveras, Enric Rodriguez-Carbonell, Albert Rubio
Generated on: 2017-04-27
Generator: VeryMax
Application: Termination proving
Target solver: barcelogic
|)
(set-info :license "https://creativecommons.org/licenses/by/4.0/")
(set-info :category "industrial")
(set-info :status unknown)
(declare-fun Nl2main_i1 () Int)
(declare-fun Nl2main_j1 () Int)
(declare-fun Nl2main_i2 () Int)
(declare-fun Nl2main_j2 () Int)
(declare-fun Nl2main_i3 () Int)
(declare-fun Nl2main_j3 () Int)
(declare-fun lam0n0 () Int)
(declare-fun lam0n1 () Int)
(declare-fun lam0n2 () Int)
(declare-fun lam0n3 () Int)
(declare-fun lam0n4 () Int)
(declare-fun lam0n5 () Int)
(declare-fun lam0n6 () Int)
(declare-fun Nl2CT1 () Int)
(declare-fun Nl2CT2 () Int)
(declare-fun Nl2CT3 () Int)
(declare-fun lam1n0 () Int)
(declare-fun lam1n1 () Int)
(declare-fun lam1n2 () Int)
(declare-fun lam1n3 () Int)
(declare-fun lam1n4 () Int)
(declare-fun lam1n5 () Int)
(declare-fun lam1n6 () Int)
(declare-fun lam2n0 () Int)
(declare-fun lam2n1 () Int)
(declare-fun lam2n2 () Int)
(declare-fun lam2n3 () Int)
(declare-fun lam2n4 () Int)
(declare-fun lam2n5 () Int)
(declare-fun lam2n6 () Int)
(declare-fun lam3n0 () Int)
(declare-fun lam3n1 () Int)
(declare-fun lam3n2 () Int)
(declare-fun lam3n3 () Int)
(declare-fun lam3n4 () Int)
(declare-fun lam3n5 () Int)
(declare-fun lam3n6 () Int)
(declare-fun lam4n0 () Int)
(declare-fun lam4n1 () Int)
(declare-fun lam4n2 () Int)
(declare-fun lam4n4 () Int)
(declare-fun lam4n5 () Int)
(declare-fun lam4n6 () Int)
(declare-fun lam4n3 () Int)
(declare-fun lam5n0 () Int)
(declare-fun lam5n1 () Int)
(declare-fun lam5n2 () Int)
(declare-fun lam5n4 () Int)
(declare-fun lam5n5 () Int)
(declare-fun lam5n6 () Int)
(declare-fun lam5n3 () Int)
(declare-fun lam6n0 () Int)
(declare-fun lam6n1 () Int)
(declare-fun lam6n2 () Int)
(declare-fun lam6n4 () Int)
(declare-fun lam6n5 () Int)
(declare-fun lam6n6 () Int)
(declare-fun lam6n3 () Int)
(declare-fun lam7n0 () Int)
(declare-fun lam7n1 () Int)
(declare-fun lam7n2 () Int)
(declare-fun lam7n4 () Int)
(declare-fun lam7n5 () Int)
(declare-fun lam7n6 () Int)
(declare-fun lam7n3 () Int)
(declare-fun lam8n0 () Int)
(declare-fun lam8n1 () Int)
(declare-fun lam8n2 () Int)
(declare-fun lam8n3 () Int)
(declare-fun lam8n4 () Int)
(declare-fun lam8n5 () Int)
(declare-fun lam8n6 () Int)
(declare-fun lam8n7 () Int)
(declare-fun lam9n0 () Int)
(declare-fun lam9n1 () Int)
(declare-fun lam9n2 () Int)
(declare-fun lam9n3 () Int)
(declare-fun lam9n4 () Int)
(declare-fun lam9n5 () Int)
(declare-fun lam9n6 () Int)
(declare-fun lam9n7 () Int)
(declare-fun lam10n0 () Int)
(declare-fun lam10n1 () Int)
(declare-fun lam10n2 () Int)
(declare-fun lam10n3 () Int)
(declare-fun lam10n4 () Int)
(declare-fun lam10n5 () Int)
(declare-fun lam10n6 () Int)
(declare-fun lam10n7 () Int)
(declare-fun lam11n0 () Int)
(declare-fun lam11n1 () Int)
(declare-fun lam11n2 () Int)
(declare-fun lam11n3 () Int)
(declare-fun lam11n4 () Int)
(declare-fun lam11n5 () Int)
(declare-fun lam11n6 () Int)
(declare-fun lam11n7 () Int)
(declare-fun lam12n0 () Int)
(declare-fun lam12n1 () Int)
(declare-fun lam12n3 () Int)
(declare-fun lam12n4 () Int)
(declare-fun lam12n5 () Int)
(declare-fun lam12n2 () Int)
(declare-fun lam13n0 () Int)
(declare-fun lam13n1 () Int)
(declare-fun lam13n3 () Int)
(declare-fun lam13n4 () Int)
(declare-fun lam13n5 () Int)
(declare-fun lam13n2 () Int)
(declare-fun lam14n0 () Int)
(declare-fun lam14n1 () Int)
(declare-fun lam14n3 () Int)
(declare-fun lam14n4 () Int)
(declare-fun lam14n5 () Int)
(declare-fun lam14n2 () Int)
(declare-fun lam15n0 () Int)
(declare-fun lam15n1 () Int)
(declare-fun lam15n3 () Int)
(declare-fun lam15n4 () Int)
(declare-fun lam15n5 () Int)
(declare-fun lam15n2 () Int)
(declare-fun lam16n0 () Int)
(declare-fun lam16n1 () Int)
(declare-fun lam16n2 () Int)
(declare-fun lam16n3 () Int)
(declare-fun lam16n4 () Int)
(declare-fun lam16n5 () Int)
(declare-fun lam17n0 () Int)
(declare-fun lam17n1 () Int)
(declare-fun lam17n2 () Int)
(declare-fun lam17n3 () Int)
(declare-fun lam17n4 () Int)
(declare-fun lam17n5 () Int)
(declare-fun lam18n0 () Int)
(declare-fun lam18n1 () Int)
(declare-fun lam18n2 () Int)
(declare-fun lam18n3 () Int)
(declare-fun lam18n4 () Int)
(declare-fun lam18n5 () Int)
(declare-fun lam19n0 () Int)
(declare-fun lam19n1 () Int)
(declare-fun lam19n2 () Int)
(declare-fun lam19n3 () Int)
(declare-fun lam19n4 () Int)
(declare-fun lam19n5 () Int)
(declare-fun lam20n0 () Int)
(declare-fun lam20n1 () Int)
(declare-fun lam20n2 () Int)
(declare-fun lam20n3 () Int)
(declare-fun lam20n4 () Int)
(declare-fun lam20n5 () Int)
(declare-fun lam20n6 () Int)
(declare-fun lam21n0 () Int)
(declare-fun lam21n1 () Int)
(declare-fun lam21n2 () Int)
(declare-fun lam21n3 () Int)
(declare-fun lam21n4 () Int)
(declare-fun lam21n5 () Int)
(declare-fun lam21n6 () Int)
(declare-fun lam22n0 () Int)
(declare-fun lam22n1 () Int)
(declare-fun lam22n2 () Int)
(declare-fun lam22n3 () Int)
(declare-fun lam22n4 () Int)
(declare-fun lam22n5 () Int)
(declare-fun lam22n6 () Int)
(declare-fun lam23n0 () Int)
(declare-fun lam23n1 () Int)
(declare-fun lam23n2 () Int)
(declare-fun lam23n3 () Int)
(declare-fun lam23n4 () Int)
(declare-fun lam23n5 () Int)
(declare-fun lam23n6 () Int)
(declare-fun lam24n0 () Int)
(declare-fun lam24n1 () Int)
(declare-fun lam24n2 () Int)
(declare-fun lam24n3 () Int)
(declare-fun lam25n0 () Int)
(declare-fun lam25n1 () Int)
(declare-fun lam25n2 () Int)
(declare-fun lam25n3 () Int)
(declare-fun lam26n0 () Int)
(declare-fun lam26n1 () Int)
(declare-fun lam26n2 () Int)
(declare-fun lam26n3 () Int)
(declare-fun main_i () Int)
(declare-fun main_j () Int)
(declare-fun undef2 () Int)
(declare-fun lam30n0 () Int)
(declare-fun lam30n1 () Int)
(declare-fun lam30n2 () Int)
(declare-fun lam30n3 () Int)
(declare-fun lam30n4 () Int)
(declare-fun lam30n5 () Int)
(declare-fun lam30n6 () Int)
(declare-fun lam30n7 () Int)
(declare-fun RFN1_CT () Int)
(declare-fun RFN1_main_i () Int)
(declare-fun RFN1_main_j () Int)
(declare-fun lam34n0 () Int)
(declare-fun lam34n1 () Int)
(declare-fun lam34n2 () Int)
(declare-fun lam34n3 () Int)
(declare-fun lam34n4 () Int)
(declare-fun lam34n5 () Int)
(declare-fun lam34n6 () Int)
(declare-fun lam28n0 () Int)
(declare-fun lam28n1 () Int)
(declare-fun lam28n2 () Int)
(declare-fun lam28n3 () Int)
(declare-fun lam28n4 () Int)
(declare-fun lam28n5 () Int)
(declare-fun lam28n6 () Int)
(declare-fun lam28n7 () Int)
(declare-fun lam29n0 () Int)
(declare-fun lam29n1 () Int)
(declare-fun lam29n2 () Int)
(declare-fun lam29n3 () Int)
(declare-fun lam29n4 () Int)
(declare-fun lam29n5 () Int)
(declare-fun lam29n6 () Int)
(declare-fun lam29n7 () Int)
(declare-fun lam32n0 () Int)
(declare-fun lam32n1 () Int)
(declare-fun lam32n2 () Int)
(declare-fun lam32n3 () Int)
(declare-fun lam32n4 () Int)
(declare-fun lam32n5 () Int)
(declare-fun lam32n6 () Int)
(declare-fun lam33n0 () Int)
(declare-fun lam33n1 () Int)
(declare-fun lam33n2 () Int)
(declare-fun lam33n3 () Int)
(declare-fun lam33n4 () Int)
(declare-fun lam33n5 () Int)
(declare-fun lam33n6 () Int)
(declare-fun lam27n0 () Int)
(declare-fun lam27n1 () Int)
(declare-fun lam27n2 () Int)
(declare-fun lam27n3 () Int)
(declare-fun lam27n4 () Int)
(declare-fun lam27n5 () Int)
(declare-fun lam27n6 () Int)
(declare-fun lam27n7 () Int)
(declare-fun lam31n0 () Int)
(declare-fun lam31n1 () Int)
(declare-fun lam31n2 () Int)
(declare-fun lam31n3 () Int)
(declare-fun lam31n4 () Int)
(declare-fun lam31n5 () Int)
(declare-fun lam31n6 () Int)
(assert ( and ( <= ( - 2 ) Nl2main_i1 ) ( <= Nl2main_i1 2 ) ( <= ( - 2 ) Nl2main_j1 ) ( <= Nl2main_j1 2 ) ( <= ( - 2 ) Nl2main_i2 ) ( <= Nl2main_i2 2 ) ( <= ( - 2 ) Nl2main_j2 ) ( <= Nl2main_j2 2 ) ( <= ( - 2 ) Nl2main_i3 ) ( <= Nl2main_i3 2 ) ( <= ( - 2 ) Nl2main_j3 ) ( <= Nl2main_j3 2 ) ))
(assert ( or ( and ( >= lam0n0 0 ) ( >= lam0n1 0 ) ( >= lam0n2 0 ) ( >= lam0n3 0 ) ( >= lam0n4 0 ) ( >= lam0n5 0 ) ( >= lam0n6 0 ) ( > ( + ( * 1 lam0n0 ) ( * 1 lam0n1 ) ( * ( - 4 ) lam0n2 ) ( * 3 lam0n3 ) ( * Nl2CT1 lam0n4 ) ( * Nl2CT2 lam0n5 ) ( * Nl2CT3 lam0n6 ) ( - 1 ) ) 0 ) ( = ( + ( * ( - 1 ) lam0n0 ) ( * ( - 1 ) lam0n3 ) ( * Nl2main_i1 lam0n4 ) ( * Nl2main_i2 lam0n5 ) ( * Nl2main_i3 lam0n6 ) ) 0 ) ( = ( + ( * ( - 1 ) lam0n1 ) ( * 1 lam0n2 ) ( * 1 lam0n3 ) ( * Nl2main_j1 lam0n4 ) ( * Nl2main_j2 lam0n5 ) ( * Nl2main_j3 lam0n6 ) ) 0 ) ) ( and ( >= lam1n0 0 ) ( >= lam1n1 0 ) ( >= lam1n2 0 ) ( >= lam1n3 0 ) ( >= lam1n4 0 ) ( >= lam1n5 0 ) ( >= lam1n6 0 ) ( > ( + ( * 1 lam1n0 ) ( * 1 lam1n1 ) ( * ( - 4 ) lam1n2 ) ( * 3 lam1n3 ) ( * Nl2CT1 lam1n4 ) ( * Nl2CT2 lam1n5 ) ( * Nl2CT3 lam1n6 ) ( - 1 ( + ( + Nl2CT1 ( * Nl2main_i1 2 ) ) ( * Nl2main_j1 1 ) ) ) ) 0 ) ( = ( + ( * ( - 1 ) lam1n0 ) ( * ( - 1 ) lam1n3 ) ( * Nl2main_i1 lam1n4 ) ( * Nl2main_i2 lam1n5 ) ( * Nl2main_i3 lam1n6 ) ( - ( + 0 ( * Nl2main_i1 1 ) ) ) ) 0 ) ( = ( + ( * ( - 1 ) lam1n1 ) ( * 1 lam1n2 ) ( * 1 lam1n3 ) ( * Nl2main_j1 lam1n4 ) ( * Nl2main_j2 lam1n5 ) ( * Nl2main_j3 lam1n6 ) ( - ( + 0 ( * Nl2main_j1 1 ) ) ) ) 0 ) ) ))
(assert ( or ( and ( >= lam0n0 0 ) ( >= lam0n1 0 ) ( >= lam0n2 0 ) ( >= lam0n3 0 ) ( >= lam0n4 0 ) ( >= lam0n5 0 ) ( >= lam0n6 0 ) ( > ( + ( * 1 lam0n0 ) ( * 1 lam0n1 ) ( * ( - 4 ) lam0n2 ) ( * 3 lam0n3 ) ( * Nl2CT1 lam0n4 ) ( * Nl2CT2 lam0n5 ) ( * Nl2CT3 lam0n6 ) ( - 1 ) ) 0 ) ( = ( + ( * ( - 1 ) lam0n0 ) ( * ( - 1 ) lam0n3 ) ( * Nl2main_i1 lam0n4 ) ( * Nl2main_i2 lam0n5 ) ( * Nl2main_i3 lam0n6 ) ) 0 ) ( = ( + ( * ( - 1 ) lam0n1 ) ( * 1 lam0n2 ) ( * 1 lam0n3 ) ( * Nl2main_j1 lam0n4 ) ( * Nl2main_j2 lam0n5 ) ( * Nl2main_j3 lam0n6 ) ) 0 ) ) ( and ( >= lam2n0 0 ) ( >= lam2n1 0 ) ( >= lam2n2 0 ) ( >= lam2n3 0 ) ( >= lam2n4 0 ) ( >= lam2n5 0 ) ( >= lam2n6 0 ) ( > ( + ( * 1 lam2n0 ) ( * 1 lam2n1 ) ( * ( - 4 ) lam2n2 ) ( * 3 lam2n3 ) ( * Nl2CT1 lam2n4 ) ( * Nl2CT2 lam2n5 ) ( * Nl2CT3 lam2n6 ) ( - 1 ( + ( + Nl2CT2 ( * Nl2main_i2 2 ) ) ( * Nl2main_j2 1 ) ) ) ) 0 ) ( = ( + ( * ( - 1 ) lam2n0 ) ( * ( - 1 ) lam2n3 ) ( * Nl2main_i1 lam2n4 ) ( * Nl2main_i2 lam2n5 ) ( * Nl2main_i3 lam2n6 ) ( - ( + 0 ( * Nl2main_i2 1 ) ) ) ) 0 ) ( = ( + ( * ( - 1 ) lam2n1 ) ( * 1 lam2n2 ) ( * 1 lam2n3 ) ( * Nl2main_j1 lam2n4 ) ( * Nl2main_j2 lam2n5 ) ( * Nl2main_j3 lam2n6 ) ( - ( + 0 ( * Nl2main_j2 1 ) ) ) ) 0 ) ) ))
(assert ( or ( and ( >= lam0n0 0 ) ( >= lam0n1 0 ) ( >= lam0n2 0 ) ( >= lam0n3 0 ) ( >= lam0n4 0 ) ( >= lam0n5 0 ) ( >= lam0n6 0 ) ( > ( + ( * 1 lam0n0 ) ( * 1 lam0n1 ) ( * ( - 4 ) lam0n2 ) ( * 3 lam0n3 ) ( * Nl2CT1 lam0n4 ) ( * Nl2CT2 lam0n5 ) ( * Nl2CT3 lam0n6 ) ( - 1 ) ) 0 ) ( = ( + ( * ( - 1 ) lam0n0 ) ( * ( - 1 ) lam0n3 ) ( * Nl2main_i1 lam0n4 ) ( * Nl2main_i2 lam0n5 ) ( * Nl2main_i3 lam0n6 ) ) 0 ) ( = ( + ( * ( - 1 ) lam0n1 ) ( * 1 lam0n2 ) ( * 1 lam0n3 ) ( * Nl2main_j1 lam0n4 ) ( * Nl2main_j2 lam0n5 ) ( * Nl2main_j3 lam0n6 ) ) 0 ) ) ( and ( >= lam3n0 0 ) ( >= lam3n1 0 ) ( >= lam3n2 0 ) ( >= lam3n3 0 ) ( >= lam3n4 0 ) ( >= lam3n5 0 ) ( >= lam3n6 0 ) ( > ( + ( * 1 lam3n0 ) ( * 1 lam3n1 ) ( * ( - 4 ) lam3n2 ) ( * 3 lam3n3 ) ( * Nl2CT1 lam3n4 ) ( * Nl2CT2 lam3n5 ) ( * Nl2CT3 lam3n6 ) ( - 1 ( + ( + Nl2CT3 ( * Nl2main_i3 2 ) ) ( * Nl2main_j3 1 ) ) ) ) 0 ) ( = ( + ( * ( - 1 ) lam3n0 ) ( * ( - 1 ) lam3n3 ) ( * Nl2main_i1 lam3n4 ) ( * Nl2main_i2 lam3n5 ) ( * Nl2main_i3 lam3n6 ) ( - ( + 0 ( * Nl2main_i3 1 ) ) ) ) 0 ) ( = ( + ( * ( - 1 ) lam3n1 ) ( * 1 lam3n2 ) ( * 1 lam3n3 ) ( * Nl2main_j1 lam3n4 ) ( * Nl2main_j2 lam3n5 ) ( * Nl2main_j3 lam3n6 ) ( - ( + 0 ( * Nl2main_j3 1 ) ) ) ) 0 ) ) ))
(assert ( or ( and ( >= lam4n0 0 ) ( >= lam4n1 0 ) ( >= lam4n2 0 ) ( >= lam4n4 0 ) ( >= lam4n5 0 ) ( >= lam4n6 0 ) ( > ( + ( * 1 lam4n0 ) ( * 1 lam4n1 ) ( * ( - 4 ) lam4n2 ) ( * Nl2CT1 lam4n4 ) ( * Nl2CT2 lam4n5 ) ( * Nl2CT3 lam4n6 ) ( - 1 ) ) 0 ) ( = ( + ( * ( - 1 ) lam4n0 ) ( * 1 lam4n3 ) ( * Nl2main_i1 lam4n4 ) ( * Nl2main_i2 lam4n5 ) ( * Nl2main_i3 lam4n6 ) ) 0 ) ( = ( + ( * ( - 1 ) lam4n1 ) ( * 1 lam4n2 ) ( * ( - 1 ) lam4n3 ) ( * Nl2main_j1 lam4n4 ) ( * Nl2main_j2 lam4n5 ) ( * Nl2main_j3 lam4n6 ) ) 0 ) ) ( and ( >= lam5n0 0 ) ( >= lam5n1 0 ) ( >= lam5n2 0 ) ( >= lam5n4 0 ) ( >= lam5n5 0 ) ( >= lam5n6 0 ) ( > ( + ( * 1 lam5n0 ) ( * 1 lam5n1 ) ( * ( - 4 ) lam5n2 ) ( * Nl2CT1 lam5n4 ) ( * Nl2CT2 lam5n5 ) ( * Nl2CT3 lam5n6 ) ( - 1 ( + ( + Nl2CT1 ( * Nl2main_i1 1 ) ) ( * Nl2main_j1 2 ) ) ) ) 0 ) ( = ( + ( * ( - 1 ) lam5n0 ) ( * 1 lam5n3 ) ( * Nl2main_i1 lam5n4 ) ( * Nl2main_i2 lam5n5 ) ( * Nl2main_i3 lam5n6 ) ( - ( + 0 ( * Nl2main_i1 1 ) ) ) ) 0 ) ( = ( + ( * ( - 1 ) lam5n1 ) ( * 1 lam5n2 ) ( * ( - 1 ) lam5n3 ) ( * Nl2main_j1 lam5n4 ) ( * Nl2main_j2 lam5n5 ) ( * Nl2main_j3 lam5n6 ) ( - ( + 0 ( * Nl2main_j1 1 ) ) ) ) 0 ) ) ))
(assert ( or ( and ( >= lam4n0 0 ) ( >= lam4n1 0 ) ( >= lam4n2 0 ) ( >= lam4n4 0 ) ( >= lam4n5 0 ) ( >= lam4n6 0 ) ( > ( + ( * 1 lam4n0 ) ( * 1 lam4n1 ) ( * ( - 4 ) lam4n2 ) ( * Nl2CT1 lam4n4 ) ( * Nl2CT2 lam4n5 ) ( * Nl2CT3 lam4n6 ) ( - 1 ) ) 0 ) ( = ( + ( * ( - 1 ) lam4n0 ) ( * 1 lam4n3 ) ( * Nl2main_i1 lam4n4 ) ( * Nl2main_i2 lam4n5 ) ( * Nl2main_i3 lam4n6 ) ) 0 ) ( = ( + ( * ( - 1 ) lam4n1 ) ( * 1 lam4n2 ) ( * ( - 1 ) lam4n3 ) ( * Nl2main_j1 lam4n4 ) ( * Nl2main_j2 lam4n5 ) ( * Nl2main_j3 lam4n6 ) ) 0 ) ) ( and ( >= lam6n0 0 ) ( >= lam6n1 0 ) ( >= lam6n2 0 ) ( >= lam6n4 0 ) ( >= lam6n5 0 ) ( >= lam6n6 0 ) ( > ( + ( * 1 lam6n0 ) ( * 1 lam6n1 ) ( * ( - 4 ) lam6n2 ) ( * Nl2CT1 lam6n4 ) ( * Nl2CT2 lam6n5 ) ( * Nl2CT3 lam6n6 ) ( - 1 ( + ( + Nl2CT2 ( * Nl2main_i2 1 ) ) ( * Nl2main_j2 2 ) ) ) ) 0 ) ( = ( + ( * ( - 1 ) lam6n0 ) ( * 1 lam6n3 ) ( * Nl2main_i1 lam6n4 ) ( * Nl2main_i2 lam6n5 ) ( * Nl2main_i3 lam6n6 ) ( - ( + 0 ( * Nl2main_i2 1 ) ) ) ) 0 ) ( = ( + ( * ( - 1 ) lam6n1 ) ( * 1 lam6n2 ) ( * ( - 1 ) lam6n3 ) ( * Nl2main_j1 lam6n4 ) ( * Nl2main_j2 lam6n5 ) ( * Nl2main_j3 lam6n6 ) ( - ( + 0 ( * Nl2main_j2 1 ) ) ) ) 0 ) ) ))
(assert ( or ( and ( >= lam4n0 0 ) ( >= lam4n1 0 ) ( >= lam4n2 0 ) ( >= lam4n4 0 ) ( >= lam4n5 0 ) ( >= lam4n6 0 ) ( > ( + ( * 1 lam4n0 ) ( * 1 lam4n1 ) ( * ( - 4 ) lam4n2 ) ( * Nl2CT1 lam4n4 ) ( * Nl2CT2 lam4n5 ) ( * Nl2CT3 lam4n6 ) ( - 1 ) ) 0 ) ( = ( + ( * ( - 1 ) lam4n0 ) ( * 1 lam4n3 ) ( * Nl2main_i1 lam4n4 ) ( * Nl2main_i2 lam4n5 ) ( * Nl2main_i3 lam4n6 ) ) 0 ) ( = ( + ( * ( - 1 ) lam4n1 ) ( * 1 lam4n2 ) ( * ( - 1 ) lam4n3 ) ( * Nl2main_j1 lam4n4 ) ( * Nl2main_j2 lam4n5 ) ( * Nl2main_j3 lam4n6 ) ) 0 ) ) ( and ( >= lam7n0 0 ) ( >= lam7n1 0 ) ( >= lam7n2 0 ) ( >= lam7n4 0 ) ( >= lam7n5 0 ) ( >= lam7n6 0 ) ( > ( + ( * 1 lam7n0 ) ( * 1 lam7n1 ) ( * ( - 4 ) lam7n2 ) ( * Nl2CT1 lam7n4 ) ( * Nl2CT2 lam7n5 ) ( * Nl2CT3 lam7n6 ) ( - 1 ( + ( + Nl2CT3 ( * Nl2main_i3 1 ) ) ( * Nl2main_j3 2 ) ) ) ) 0 ) ( = ( + ( * ( - 1 ) lam7n0 ) ( * 1 lam7n3 ) ( * Nl2main_i1 lam7n4 ) ( * Nl2main_i2 lam7n5 ) ( * Nl2main_i3 lam7n6 ) ( - ( + 0 ( * Nl2main_i3 1 ) ) ) ) 0 ) ( = ( + ( * ( - 1 ) lam7n1 ) ( * 1 lam7n2 ) ( * ( - 1 ) lam7n3 ) ( * Nl2main_j1 lam7n4 ) ( * Nl2main_j2 lam7n5 ) ( * Nl2main_j3 lam7n6 ) ( - ( + 0 ( * Nl2main_j3 1 ) ) ) ) 0 ) ) ))
(assert ( or ( and ( >= lam8n0 0 ) ( >= lam8n1 0 ) ( >= lam8n2 0 ) ( >= lam8n3 0 ) ( >= lam8n4 0 ) ( >= lam8n5 0 ) ( >= lam8n6 0 ) ( >= lam8n7 0 ) ( > ( + ( * 1 lam8n0 ) ( * 1 lam8n1 ) ( * 1 lam8n2 ) ( * ( - 4 ) lam8n3 ) ( * ( - 2 ) lam8n4 ) ( * Nl2CT1 lam8n5 ) ( * Nl2CT2 lam8n6 ) ( * Nl2CT3 lam8n7 ) ( - 1 ) ) 0 ) ( = ( + ( * ( - 1 ) lam8n0 ) ( * ( - 1 ) lam8n1 ) ( * 1 lam8n4 ) ( * Nl2main_i1 lam8n5 ) ( * Nl2main_i2 lam8n6 ) ( * Nl2main_i3 lam8n7 ) ) 0 ) ( = ( + ( * 1 lam8n1 ) ( * ( - 1 ) lam8n2 ) ( * 1 lam8n3 ) ( * ( - 1 ) lam8n4 ) ( * Nl2main_j1 lam8n5 ) ( * Nl2main_j2 lam8n6 ) ( * Nl2main_j3 lam8n7 ) ) 0 ) ) ( and ( >= lam9n0 0 ) ( >= lam9n1 0 ) ( >= lam9n2 0 ) ( >= lam9n3 0 ) ( >= lam9n4 0 ) ( >= lam9n5 0 ) ( >= lam9n6 0 ) ( >= lam9n7 0 ) ( > ( + ( * 1 lam9n0 ) ( * 1 lam9n1 ) ( * 1 lam9n2 ) ( * ( - 4 ) lam9n3 ) ( * ( - 2 ) lam9n4 ) ( * Nl2CT1 lam9n5 ) ( * Nl2CT2 lam9n6 ) ( * Nl2CT3 lam9n7 ) ( - 1 ( + ( + Nl2CT1 ( * Nl2main_i1 1 ) ) ( * Nl2main_j1 2 ) ) ) ) 0 ) ( = ( + ( * ( - 1 ) lam9n0 ) ( * ( - 1 ) lam9n1 ) ( * 1 lam9n4 ) ( * Nl2main_i1 lam9n5 ) ( * Nl2main_i2 lam9n6 ) ( * Nl2main_i3 lam9n7 ) ( - ( + 0 ( * Nl2main_i1 1 ) ) ) ) 0 ) ( = ( + ( * 1 lam9n1 ) ( * ( - 1 ) lam9n2 ) ( * 1 lam9n3 ) ( * ( - 1 ) lam9n4 ) ( * Nl2main_j1 lam9n5 ) ( * Nl2main_j2 lam9n6 ) ( * Nl2main_j3 lam9n7 ) ( - ( + 0 ( * Nl2main_j1 1 ) ) ) ) 0 ) ) ))
(assert ( or ( and ( >= lam8n0 0 ) ( >= lam8n1 0 ) ( >= lam8n2 0 ) ( >= lam8n3 0 ) ( >= lam8n4 0 ) ( >= lam8n5 0 ) ( >= lam8n6 0 ) ( >= lam8n7 0 ) ( > ( + ( * 1 lam8n0 ) ( * 1 lam8n1 ) ( * 1 lam8n2 ) ( * ( - 4 ) lam8n3 ) ( * ( - 2 ) lam8n4 ) ( * Nl2CT1 lam8n5 ) ( * Nl2CT2 lam8n6 ) ( * Nl2CT3 lam8n7 ) ( - 1 ) ) 0 ) ( = ( + ( * ( - 1 ) lam8n0 ) ( * ( - 1 ) lam8n1 ) ( * 1 lam8n4 ) ( * Nl2main_i1 lam8n5 ) ( * Nl2main_i2 lam8n6 ) ( * Nl2main_i3 lam8n7 ) ) 0 ) ( = ( + ( * 1 lam8n1 ) ( * ( - 1 ) lam8n2 ) ( * 1 lam8n3 ) ( * ( - 1 ) lam8n4 ) ( * Nl2main_j1 lam8n5 ) ( * Nl2main_j2 lam8n6 ) ( * Nl2main_j3 lam8n7 ) ) 0 ) ) ( and ( >= lam10n0 0 ) ( >= lam10n1 0 ) ( >= lam10n2 0 ) ( >= lam10n3 0 ) ( >= lam10n4 0 ) ( >= lam10n5 0 ) ( >= lam10n6 0 ) ( >= lam10n7 0 ) ( > ( + ( * 1 lam10n0 ) ( * 1 lam10n1 ) ( * 1 lam10n2 ) ( * ( - 4 ) lam10n3 ) ( * ( - 2 ) lam10n4 ) ( * Nl2CT1 lam10n5 ) ( * Nl2CT2 lam10n6 ) ( * Nl2CT3 lam10n7 ) ( - 1 ( + ( + Nl2CT2 ( * Nl2main_i2 1 ) ) ( * Nl2main_j2 2 ) ) ) ) 0 ) ( = ( + ( * ( - 1 ) lam10n0 ) ( * ( - 1 ) lam10n1 ) ( * 1 lam10n4 ) ( * Nl2main_i1 lam10n5 ) ( * Nl2main_i2 lam10n6 ) ( * Nl2main_i3 lam10n7 ) ( - ( + 0 ( * Nl2main_i2 1 ) ) ) ) 0 ) ( = ( + ( * 1 lam10n1 ) ( * ( - 1 ) lam10n2 ) ( * 1 lam10n3 ) ( * ( - 1 ) lam10n4 ) ( * Nl2main_j1 lam10n5 ) ( * Nl2main_j2 lam10n6 ) ( * Nl2main_j3 lam10n7 ) ( - ( + 0 ( * Nl2main_j2 1 ) ) ) ) 0 ) ) ))
(assert ( or ( and ( >= lam8n0 0 ) ( >= lam8n1 0 ) ( >= lam8n2 0 ) ( >= lam8n3 0 ) ( >= lam8n4 0 ) ( >= lam8n5 0 ) ( >= lam8n6 0 ) ( >= lam8n7 0 ) ( > ( + ( * 1 lam8n0 ) ( * 1 lam8n1 ) ( * 1 lam8n2 ) ( * ( - 4 ) lam8n3 ) ( * ( - 2 ) lam8n4 ) ( * Nl2CT1 lam8n5 ) ( * Nl2CT2 lam8n6 ) ( * Nl2CT3 lam8n7 ) ( - 1 ) ) 0 ) ( = ( + ( * ( - 1 ) lam8n0 ) ( * ( - 1 ) lam8n1 ) ( * 1 lam8n4 ) ( * Nl2main_i1 lam8n5 ) ( * Nl2main_i2 lam8n6 ) ( * Nl2main_i3 lam8n7 ) ) 0 ) ( = ( + ( * 1 lam8n1 ) ( * ( - 1 ) lam8n2 ) ( * 1 lam8n3 ) ( * ( - 1 ) lam8n4 ) ( * Nl2main_j1 lam8n5 ) ( * Nl2main_j2 lam8n6 ) ( * Nl2main_j3 lam8n7 ) ) 0 ) ) ( and ( >= lam11n0 0 ) ( >= lam11n1 0 ) ( >= lam11n2 0 ) ( >= lam11n3 0 ) ( >= lam11n4 0 ) ( >= lam11n5 0 ) ( >= lam11n6 0 ) ( >= lam11n7 0 ) ( > ( + ( * 1 lam11n0 ) ( * 1 lam11n1 ) ( * 1 lam11n2 ) ( * ( - 4 ) lam11n3 ) ( * ( - 2 ) lam11n4 ) ( * Nl2CT1 lam11n5 ) ( * Nl2CT2 lam11n6 ) ( * Nl2CT3 lam11n7 ) ( - 1 ( + ( + Nl2CT3 ( * Nl2main_i3 1 ) ) ( * Nl2main_j3 2 ) ) ) ) 0 ) ( = ( + ( * ( - 1 ) lam11n0 ) ( * ( - 1 ) lam11n1 ) ( * 1 lam11n4 ) ( * Nl2main_i1 lam11n5 ) ( * Nl2main_i2 lam11n6 ) ( * Nl2main_i3 lam11n7 ) ( - ( + 0 ( * Nl2main_i3 1 ) ) ) ) 0 ) ( = ( + ( * 1 lam11n1 ) ( * ( - 1 ) lam11n2 ) ( * 1 lam11n3 ) ( * ( - 1 ) lam11n4 ) ( * Nl2main_j1 lam11n5 ) ( * Nl2main_j2 lam11n6 ) ( * Nl2main_j3 lam11n7 ) ( - ( + 0 ( * Nl2main_j3 1 ) ) ) ) 0 ) ) ))
(assert ( or ( and ( >= lam12n0 0 ) ( >= lam12n1 0 ) ( >= lam12n3 0 ) ( >= lam12n4 0 ) ( >= lam12n5 0 ) ( > ( + ( * 1 lam12n0 ) ( * 5 lam12n1 ) ( * Nl2CT1 lam12n3 ) ( * Nl2CT2 lam12n4 ) ( * Nl2CT3 lam12n5 ) ( - 1 ) ) 0 ) ( = ( + ( * ( - 1 ) lam12n0 ) ( * 1 lam12n2 ) ( * Nl2main_i1 lam12n3 ) ( * Nl2main_i2 lam12n4 ) ( * Nl2main_i3 lam12n5 ) ) 0 ) ( = ( + ( * ( - 1 ) lam12n1 ) ( * ( - 1 ) lam12n2 ) ( * Nl2main_j1 lam12n3 ) ( * Nl2main_j2 lam12n4 ) ( * Nl2main_j3 lam12n5 ) ) 0 ) ) ( and ( >= lam13n0 0 ) ( >= lam13n1 0 ) ( >= lam13n3 0 ) ( >= lam13n4 0 ) ( >= lam13n5 0 ) ( > ( + ( * 1 lam13n0 ) ( * 5 lam13n1 ) ( * Nl2CT1 lam13n3 ) ( * Nl2CT2 lam13n4 ) ( * Nl2CT3 lam13n5 ) ( - 1 ( + ( + Nl2CT1 ( * Nl2main_i1 1 ) ) ( * Nl2main_j1 ( - 1 ) ) ) ) ) 0 ) ( = ( + ( * ( - 1 ) lam13n0 ) ( * 1 lam13n2 ) ( * Nl2main_i1 lam13n3 ) ( * Nl2main_i2 lam13n4 ) ( * Nl2main_i3 lam13n5 ) ( - ( + 0 ( * Nl2main_i1 1 ) ) ) ) 0 ) ( = ( + ( * ( - 1 ) lam13n1 ) ( * ( - 1 ) lam13n2 ) ( * Nl2main_j1 lam13n3 ) ( * Nl2main_j2 lam13n4 ) ( * Nl2main_j3 lam13n5 ) ( - ( + 0 ( * Nl2main_j1 1 ) ) ) ) 0 ) ) ))
(assert ( or ( and ( >= lam12n0 0 ) ( >= lam12n1 0 ) ( >= lam12n3 0 ) ( >= lam12n4 0 ) ( >= lam12n5 0 ) ( > ( + ( * 1 lam12n0 ) ( * 5 lam12n1 ) ( * Nl2CT1 lam12n3 ) ( * Nl2CT2 lam12n4 ) ( * Nl2CT3 lam12n5 ) ( - 1 ) ) 0 ) ( = ( + ( * ( - 1 ) lam12n0 ) ( * 1 lam12n2 ) ( * Nl2main_i1 lam12n3 ) ( * Nl2main_i2 lam12n4 ) ( * Nl2main_i3 lam12n5 ) ) 0 ) ( = ( + ( * ( - 1 ) lam12n1 ) ( * ( - 1 ) lam12n2 ) ( * Nl2main_j1 lam12n3 ) ( * Nl2main_j2 lam12n4 ) ( * Nl2main_j3 lam12n5 ) ) 0 ) ) ( and ( >= lam14n0 0 ) ( >= lam14n1 0 ) ( >= lam14n3 0 ) ( >= lam14n4 0 ) ( >= lam14n5 0 ) ( > ( + ( * 1 lam14n0 ) ( * 5 lam14n1 ) ( * Nl2CT1 lam14n3 ) ( * Nl2CT2 lam14n4 ) ( * Nl2CT3 lam14n5 ) ( - 1 ( + ( + Nl2CT2 ( * Nl2main_i2 1 ) ) ( * Nl2main_j2 ( - 1 ) ) ) ) ) 0 ) ( = ( + ( * ( - 1 ) lam14n0 ) ( * 1 lam14n2 ) ( * Nl2main_i1 lam14n3 ) ( * Nl2main_i2 lam14n4 ) ( * Nl2main_i3 lam14n5 ) ( - ( + 0 ( * Nl2main_i2 1 ) ) ) ) 0 ) ( = ( + ( * ( - 1 ) lam14n1 ) ( * ( - 1 ) lam14n2 ) ( * Nl2main_j1 lam14n3 ) ( * Nl2main_j2 lam14n4 ) ( * Nl2main_j3 lam14n5 ) ( - ( + 0 ( * Nl2main_j2 1 ) ) ) ) 0 ) ) ))
(assert ( or ( and ( >= lam12n0 0 ) ( >= lam12n1 0 ) ( >= lam12n3 0 ) ( >= lam12n4 0 ) ( >= lam12n5 0 ) ( > ( + ( * 1 lam12n0 ) ( * 5 lam12n1 ) ( * Nl2CT1 lam12n3 ) ( * Nl2CT2 lam12n4 ) ( * Nl2CT3 lam12n5 ) ( - 1 ) ) 0 ) ( = ( + ( * ( - 1 ) lam12n0 ) ( * 1 lam12n2 ) ( * Nl2main_i1 lam12n3 ) ( * Nl2main_i2 lam12n4 ) ( * Nl2main_i3 lam12n5 ) ) 0 ) ( = ( + ( * ( - 1 ) lam12n1 ) ( * ( - 1 ) lam12n2 ) ( * Nl2main_j1 lam12n3 ) ( * Nl2main_j2 lam12n4 ) ( * Nl2main_j3 lam12n5 ) ) 0 ) ) ( and ( >= lam15n0 0 ) ( >= lam15n1 0 ) ( >= lam15n3 0 ) ( >= lam15n4 0 ) ( >= lam15n5 0 ) ( > ( + ( * 1 lam15n0 ) ( * 5 lam15n1 ) ( * Nl2CT1 lam15n3 ) ( * Nl2CT2 lam15n4 ) ( * Nl2CT3 lam15n5 ) ( - 1 ( + ( + Nl2CT3 ( * Nl2main_i3 1 ) ) ( * Nl2main_j3 ( - 1 ) ) ) ) ) 0 ) ( = ( + ( * ( - 1 ) lam15n0 ) ( * 1 lam15n2 ) ( * Nl2main_i1 lam15n3 ) ( * Nl2main_i2 lam15n4 ) ( * Nl2main_i3 lam15n5 ) ( - ( + 0 ( * Nl2main_i3 1 ) ) ) ) 0 ) ( = ( + ( * ( - 1 ) lam15n1 ) ( * ( - 1 ) lam15n2 ) ( * Nl2main_j1 lam15n3 ) ( * Nl2main_j2 lam15n4 ) ( * Nl2main_j3 lam15n5 ) ( - ( + 0 ( * Nl2main_j3 1 ) ) ) ) 0 ) ) ))
(assert ( or ( and ( >= lam16n0 0 ) ( >= lam16n1 0 ) ( >= lam16n2 0 ) ( >= lam16n3 0 ) ( >= lam16n4 0 ) ( >= lam16n5 0 ) ( > ( + ( * 1 lam16n0 ) ( * 1 lam16n1 ) ( * 5 lam16n2 ) ( * Nl2CT1 lam16n3 ) ( * Nl2CT2 lam16n4 ) ( * Nl2CT3 lam16n5 ) ( - 1 ) ) 0 ) ( = ( + ( * ( - 1 ) lam16n0 ) ( * ( - 1 ) lam16n1 ) ( * Nl2main_i1 lam16n3 ) ( * Nl2main_i2 lam16n4 ) ( * Nl2main_i3 lam16n5 ) ) 0 ) ( = ( + ( * 1 lam16n1 ) ( * ( - 1 ) lam16n2 ) ( * Nl2main_j1 lam16n3 ) ( * Nl2main_j2 lam16n4 ) ( * Nl2main_j3 lam16n5 ) ) 0 ) ) ( and ( >= lam17n0 0 ) ( >= lam17n1 0 ) ( >= lam17n2 0 ) ( >= lam17n3 0 ) ( >= lam17n4 0 ) ( >= lam17n5 0 ) ( > ( + ( * 1 lam17n0 ) ( * 1 lam17n1 ) ( * 5 lam17n2 ) ( * Nl2CT1 lam17n3 ) ( * Nl2CT2 lam17n4 ) ( * Nl2CT3 lam17n5 ) ( - 1 ( + ( + Nl2CT1 ( * Nl2main_i1 1 ) ) ( * Nl2main_j1 ( - 1 ) ) ) ) ) 0 ) ( = ( + ( * ( - 1 ) lam17n0 ) ( * ( - 1 ) lam17n1 ) ( * Nl2main_i1 lam17n3 ) ( * Nl2main_i2 lam17n4 ) ( * Nl2main_i3 lam17n5 ) ( - ( + 0 ( * Nl2main_i1 1 ) ) ) ) 0 ) ( = ( + ( * 1 lam17n1 ) ( * ( - 1 ) lam17n2 ) ( * Nl2main_j1 lam17n3 ) ( * Nl2main_j2 lam17n4 ) ( * Nl2main_j3 lam17n5 ) ( - ( + 0 ( * Nl2main_j1 1 ) ) ) ) 0 ) ) ))
(assert ( or ( and ( >= lam16n0 0 ) ( >= lam16n1 0 ) ( >= lam16n2 0 ) ( >= lam16n3 0 ) ( >= lam16n4 0 ) ( >= lam16n5 0 ) ( > ( + ( * 1 lam16n0 ) ( * 1 lam16n1 ) ( * 5 lam16n2 ) ( * Nl2CT1 lam16n3 ) ( * Nl2CT2 lam16n4 ) ( * Nl2CT3 lam16n5 ) ( - 1 ) ) 0 ) ( = ( + ( * ( - 1 ) lam16n0 ) ( * ( - 1 ) lam16n1 ) ( * Nl2main_i1 lam16n3 ) ( * Nl2main_i2 lam16n4 ) ( * Nl2main_i3 lam16n5 ) ) 0 ) ( = ( + ( * 1 lam16n1 ) ( * ( - 1 ) lam16n2 ) ( * Nl2main_j1 lam16n3 ) ( * Nl2main_j2 lam16n4 ) ( * Nl2main_j3 lam16n5 ) ) 0 ) ) ( and ( >= lam18n0 0 ) ( >= lam18n1 0 ) ( >= lam18n2 0 ) ( >= lam18n3 0 ) ( >= lam18n4 0 ) ( >= lam18n5 0 ) ( > ( + ( * 1 lam18n0 ) ( * 1 lam18n1 ) ( * 5 lam18n2 ) ( * Nl2CT1 lam18n3 ) ( * Nl2CT2 lam18n4 ) ( * Nl2CT3 lam18n5 ) ( - 1 ( + ( + Nl2CT2 ( * Nl2main_i2 1 ) ) ( * Nl2main_j2 ( - 1 ) ) ) ) ) 0 ) ( = ( + ( * ( - 1 ) lam18n0 ) ( * ( - 1 ) lam18n1 ) ( * Nl2main_i1 lam18n3 ) ( * Nl2main_i2 lam18n4 ) ( * Nl2main_i3 lam18n5 ) ( - ( + 0 ( * Nl2main_i2 1 ) ) ) ) 0 ) ( = ( + ( * 1 lam18n1 ) ( * ( - 1 ) lam18n2 ) ( * Nl2main_j1 lam18n3 ) ( * Nl2main_j2 lam18n4 ) ( * Nl2main_j3 lam18n5 ) ( - ( + 0 ( * Nl2main_j2 1 ) ) ) ) 0 ) ) ))
(assert ( or ( and ( >= lam16n0 0 ) ( >= lam16n1 0 ) ( >= lam16n2 0 ) ( >= lam16n3 0 ) ( >= lam16n4 0 ) ( >= lam16n5 0 ) ( > ( + ( * 1 lam16n0 ) ( * 1 lam16n1 ) ( * 5 lam16n2 ) ( * Nl2CT1 lam16n3 ) ( * Nl2CT2 lam16n4 ) ( * Nl2CT3 lam16n5 ) ( - 1 ) ) 0 ) ( = ( + ( * ( - 1 ) lam16n0 ) ( * ( - 1 ) lam16n1 ) ( * Nl2main_i1 lam16n3 ) ( * Nl2main_i2 lam16n4 ) ( * Nl2main_i3 lam16n5 ) ) 0 ) ( = ( + ( * 1 lam16n1 ) ( * ( - 1 ) lam16n2 ) ( * Nl2main_j1 lam16n3 ) ( * Nl2main_j2 lam16n4 ) ( * Nl2main_j3 lam16n5 ) ) 0 ) ) ( and ( >= lam19n0 0 ) ( >= lam19n1 0 ) ( >= lam19n2 0 ) ( >= lam19n3 0 ) ( >= lam19n4 0 ) ( >= lam19n5 0 ) ( > ( + ( * 1 lam19n0 ) ( * 1 lam19n1 ) ( * 5 lam19n2 ) ( * Nl2CT1 lam19n3 ) ( * Nl2CT2 lam19n4 ) ( * Nl2CT3 lam19n5 ) ( - 1 ( + ( + Nl2CT3 ( * Nl2main_i3 1 ) ) ( * Nl2main_j3 ( - 1 ) ) ) ) ) 0 ) ( = ( + ( * ( - 1 ) lam19n0 ) ( * ( - 1 ) lam19n1 ) ( * Nl2main_i1 lam19n3 ) ( * Nl2main_i2 lam19n4 ) ( * Nl2main_i3 lam19n5 ) ( - ( + 0 ( * Nl2main_i3 1 ) ) ) ) 0 ) ( = ( + ( * 1 lam19n1 ) ( * ( - 1 ) lam19n2 ) ( * Nl2main_j1 lam19n3 ) ( * Nl2main_j2 lam19n4 ) ( * Nl2main_j3 lam19n5 ) ( - ( + 0 ( * Nl2main_j3 1 ) ) ) ) 0 ) ) ))
(assert ( or ( and ( >= lam20n0 0 ) ( >= lam20n1 0 ) ( >= lam20n2 0 ) ( >= lam20n3 0 ) ( >= lam20n4 0 ) ( >= lam20n5 0 ) ( >= lam20n6 0 ) ( > ( + ( * 1 lam20n0 ) ( * 1 lam20n1 ) ( * 1 lam20n2 ) ( * 2 lam20n3 ) ( * Nl2CT1 lam20n4 ) ( * Nl2CT2 lam20n5 ) ( * Nl2CT3 lam20n6 ) ( - 1 ) ) 0 ) ( = ( + ( * 1 lam20n0 ) ( * ( - 1 ) lam20n1 ) ( * 1 lam20n3 ) ( * Nl2main_i1 lam20n4 ) ( * Nl2main_i2 lam20n5 ) ( * Nl2main_i3 lam20n6 ) ) 0 ) ( = ( + ( * ( - 1 ) lam20n0 ) ( * ( - 1 ) lam20n2 ) ( * ( - 2 ) lam20n3 ) ( * Nl2main_j1 lam20n4 ) ( * Nl2main_j2 lam20n5 ) ( * Nl2main_j3 lam20n6 ) ) 0 ) ) ( and ( >= lam21n0 0 ) ( >= lam21n1 0 ) ( >= lam21n2 0 ) ( >= lam21n3 0 ) ( >= lam21n4 0 ) ( >= lam21n5 0 ) ( >= lam21n6 0 ) ( > ( + ( * 1 lam21n0 ) ( * 1 lam21n1 ) ( * 1 lam21n2 ) ( * 2 lam21n3 ) ( * Nl2CT1 lam21n4 ) ( * Nl2CT2 lam21n5 ) ( * Nl2CT3 lam21n6 ) ( - 1 ( + ( + Nl2CT1 ( * Nl2main_i1 1 ) ) ( * Nl2main_j1 ( - 1 ) ) ) ) ) 0 ) ( = ( + ( * 1 lam21n0 ) ( * ( - 1 ) lam21n1 ) ( * 1 lam21n3 ) ( * Nl2main_i1 lam21n4 ) ( * Nl2main_i2 lam21n5 ) ( * Nl2main_i3 lam21n6 ) ( - ( + 0 ( * Nl2main_i1 1 ) ) ) ) 0 ) ( = ( + ( * ( - 1 ) lam21n0 ) ( * ( - 1 ) lam21n2 ) ( * ( - 2 ) lam21n3 ) ( * Nl2main_j1 lam21n4 ) ( * Nl2main_j2 lam21n5 ) ( * Nl2main_j3 lam21n6 ) ( - ( + 0 ( * Nl2main_j1 1 ) ) ) ) 0 ) ) ))
(assert ( or ( and ( >= lam20n0 0 ) ( >= lam20n1 0 ) ( >= lam20n2 0 ) ( >= lam20n3 0 ) ( >= lam20n4 0 ) ( >= lam20n5 0 ) ( >= lam20n6 0 ) ( > ( + ( * 1 lam20n0 ) ( * 1 lam20n1 ) ( * 1 lam20n2 ) ( * 2 lam20n3 ) ( * Nl2CT1 lam20n4 ) ( * Nl2CT2 lam20n5 ) ( * Nl2CT3 lam20n6 ) ( - 1 ) ) 0 ) ( = ( + ( * 1 lam20n0 ) ( * ( - 1 ) lam20n1 ) ( * 1 lam20n3 ) ( * Nl2main_i1 lam20n4 ) ( * Nl2main_i2 lam20n5 ) ( * Nl2main_i3 lam20n6 ) ) 0 ) ( = ( + ( * ( - 1 ) lam20n0 ) ( * ( - 1 ) lam20n2 ) ( * ( - 2 ) lam20n3 ) ( * Nl2main_j1 lam20n4 ) ( * Nl2main_j2 lam20n5 ) ( * Nl2main_j3 lam20n6 ) ) 0 ) ) ( and ( >= lam22n0 0 ) ( >= lam22n1 0 ) ( >= lam22n2 0 ) ( >= lam22n3 0 ) ( >= lam22n4 0 ) ( >= lam22n5 0 ) ( >= lam22n6 0 ) ( > ( + ( * 1 lam22n0 ) ( * 1 lam22n1 ) ( * 1 lam22n2 ) ( * 2 lam22n3 ) ( * Nl2CT1 lam22n4 ) ( * Nl2CT2 lam22n5 ) ( * Nl2CT3 lam22n6 ) ( - 1 ( + ( + Nl2CT2 ( * Nl2main_i2 1 ) ) ( * Nl2main_j2 ( - 1 ) ) ) ) ) 0 ) ( = ( + ( * 1 lam22n0 ) ( * ( - 1 ) lam22n1 ) ( * 1 lam22n3 ) ( * Nl2main_i1 lam22n4 ) ( * Nl2main_i2 lam22n5 ) ( * Nl2main_i3 lam22n6 ) ( - ( + 0 ( * Nl2main_i2 1 ) ) ) ) 0 ) ( = ( + ( * ( - 1 ) lam22n0 ) ( * ( - 1 ) lam22n2 ) ( * ( - 2 ) lam22n3 ) ( * Nl2main_j1 lam22n4 ) ( * Nl2main_j2 lam22n5 ) ( * Nl2main_j3 lam22n6 ) ( - ( + 0 ( * Nl2main_j2 1 ) ) ) ) 0 ) ) ))
(assert ( or ( and ( >= lam20n0 0 ) ( >= lam20n1 0 ) ( >= lam20n2 0 ) ( >= lam20n3 0 ) ( >= lam20n4 0 ) ( >= lam20n5 0 ) ( >= lam20n6 0 ) ( > ( + ( * 1 lam20n0 ) ( * 1 lam20n1 ) ( * 1 lam20n2 ) ( * 2 lam20n3 ) ( * Nl2CT1 lam20n4 ) ( * Nl2CT2 lam20n5 ) ( * Nl2CT3 lam20n6 ) ( - 1 ) ) 0 ) ( = ( + ( * 1 lam20n0 ) ( * ( - 1 ) lam20n1 ) ( * 1 lam20n3 ) ( * Nl2main_i1 lam20n4 ) ( * Nl2main_i2 lam20n5 ) ( * Nl2main_i3 lam20n6 ) ) 0 ) ( = ( + ( * ( - 1 ) lam20n0 ) ( * ( - 1 ) lam20n2 ) ( * ( - 2 ) lam20n3 ) ( * Nl2main_j1 lam20n4 ) ( * Nl2main_j2 lam20n5 ) ( * Nl2main_j3 lam20n6 ) ) 0 ) ) ( and ( >= lam23n0 0 ) ( >= lam23n1 0 ) ( >= lam23n2 0 ) ( >= lam23n3 0 ) ( >= lam23n4 0 ) ( >= lam23n5 0 ) ( >= lam23n6 0 ) ( > ( + ( * 1 lam23n0 ) ( * 1 lam23n1 ) ( * 1 lam23n2 ) ( * 2 lam23n3 ) ( * Nl2CT1 lam23n4 ) ( * Nl2CT2 lam23n5 ) ( * Nl2CT3 lam23n6 ) ( - 1 ( + ( + Nl2CT3 ( * Nl2main_i3 1 ) ) ( * Nl2main_j3 ( - 1 ) ) ) ) ) 0 ) ( = ( + ( * 1 lam23n0 ) ( * ( - 1 ) lam23n1 ) ( * 1 lam23n3 ) ( * Nl2main_i1 lam23n4 ) ( * Nl2main_i2 lam23n5 ) ( * Nl2main_i3 lam23n6 ) ( - ( + 0 ( * Nl2main_i3 1 ) ) ) ) 0 ) ( = ( + ( * ( - 1 ) lam23n0 ) ( * ( - 1 ) lam23n2 ) ( * ( - 2 ) lam23n3 ) ( * Nl2main_j1 lam23n4 ) ( * Nl2main_j2 lam23n5 ) ( * Nl2main_j3 lam23n6 ) ( - ( + 0 ( * Nl2main_j3 1 ) ) ) ) 0 ) ) ))
(assert ( and ( not ( <= ( + 1 main_i ) 0 ) ) ( not ( <= main_j 0 ) ) ( = ( + main_i ( * ( - 1 ) undef2 ) ) 0 ) ( = ( + main_j ( * ( - 1 ) undef2 ) ) 0 ) ( <= ( + Nl2CT1 ( * ( + 0 Nl2main_i1 ) main_i ) ( * ( + 0 Nl2main_j1 ) main_j ) ) 0 ) ( <= ( + Nl2CT2 ( * ( + 0 Nl2main_i2 ) main_i ) ( * ( + 0 Nl2main_j2 ) main_j ) ) 0 ) ( <= ( + Nl2CT3 ( * ( + 0 Nl2main_i3 ) main_i ) ( * ( + 0 Nl2main_j3 ) main_j ) ) 0 ) ( <= ( + 1 ( * ( - 1 ) main_j ) ) 0 ) ))
(assert ( or ( and ( and ( and ( >= lam30n0 0 ) ( >= lam30n1 0 ) ( >= lam30n2 0 ) ( >= lam30n3 0 ) ( >= lam30n4 0 ) ( >= lam30n5 0 ) ( >= lam30n6 0 ) ( >= lam30n7 0 ) ( > ( + ( * 1 lam30n0 ) ( * ( - 4 ) lam30n1 ) ( * 3 lam30n2 ) ( * 50001 lam30n3 ) ( * 50001 lam30n4 ) ( * Nl2CT1 lam30n5 ) ( * Nl2CT2 lam30n6 ) ( * Nl2CT3 lam30n7 ) ( - 1 ( - ( + ( + RFN1_CT ( * RFN1_main_i 2 ) ) ( * RFN1_main_j 1 ) ) RFN1_CT ) ) ) 0 ) ( = ( + ( * ( - 1 ) lam30n2 ) ( * ( - 1 ) lam30n3 ) ( * ( - 2 ) lam30n4 ) ( * Nl2main_i1 lam30n5 ) ( * Nl2main_i2 lam30n6 ) ( * Nl2main_i3 lam30n7 ) ( - ( - ( + 0 ( * RFN1_main_i 1 ) ) RFN1_main_i ) ) ) 0 ) ( = ( + ( * ( - 1 ) lam30n0 ) ( * 1 lam30n1 ) ( * 1 lam30n2 ) ( * 3 lam30n4 ) ( * Nl2main_j1 lam30n5 ) ( * Nl2main_j2 lam30n6 ) ( * Nl2main_j3 lam30n7 ) ( - ( - ( + 0 ( * RFN1_main_j 1 ) ) RFN1_main_j ) ) ) 0 ) ) ( and ( >= lam34n0 0 ) ( >= lam34n1 0 ) ( >= lam34n2 0 ) ( >= lam34n3 0 ) ( >= lam34n4 0 ) ( >= lam34n5 0 ) ( >= lam34n6 0 ) ( > ( + ( * 1 lam34n0 ) ( * 5 lam34n1 ) ( * 50001 lam34n2 ) ( * 50001 lam34n3 ) ( * Nl2CT1 lam34n4 ) ( * Nl2CT2 lam34n5 ) ( * Nl2CT3 lam34n6 ) ( - 1 ( - ( + ( + RFN1_CT ( * RFN1_main_i 1 ) ) ( * RFN1_main_j ( - 1 ) ) ) RFN1_CT ) ) ) 0 ) ( = ( + ( * ( - 1 ) lam34n0 ) ( * ( - 1 ) lam34n2 ) ( * ( - 2 ) lam34n3 ) ( * Nl2main_i1 lam34n4 ) ( * Nl2main_i2 lam34n5 ) ( * Nl2main_i3 lam34n6 ) ( - ( - ( + 0 ( * RFN1_main_i 1 ) ) RFN1_main_i ) ) ) 0 ) ( = ( + ( * 1 lam34n0 ) ( * ( - 1 ) lam34n1 ) ( * 3 lam34n3 ) ( * Nl2main_j1 lam34n4 ) ( * Nl2main_j2 lam34n5 ) ( * Nl2main_j3 lam34n6 ) ( - ( - ( + 0 ( * RFN1_main_j 1 ) ) RFN1_main_j ) ) ) 0 ) ) ) ( or ( and ( and ( >= lam28n0 0 ) ( >= lam28n1 0 ) ( >= lam28n2 0 ) ( >= lam28n3 0 ) ( >= lam28n4 0 ) ( >= lam28n5 0 ) ( >= lam28n6 0 ) ( >= lam28n7 0 ) ( > ( + ( * 1 lam28n0 ) ( * ( - 4 ) lam28n1 ) ( * 3 lam28n2 ) ( * 50001 lam28n3 ) ( * 50001 lam28n4 ) ( * Nl2CT1 lam28n5 ) ( * Nl2CT2 lam28n6 ) ( * Nl2CT3 lam28n7 ) ( - 1 ( - RFN1_CT ) ) ) 0 ) ( = ( + ( * ( - 1 ) lam28n2 ) ( * ( - 1 ) lam28n3 ) ( * ( - 2 ) lam28n4 ) ( * Nl2main_i1 lam28n5 ) ( * Nl2main_i2 lam28n6 ) ( * Nl2main_i3 lam28n7 ) ( - ( - RFN1_main_i ) ) ) 0 ) ( = ( + ( * ( - 1 ) lam28n0 ) ( * 1 lam28n1 ) ( * 1 lam28n2 ) ( * 3 lam28n4 ) ( * Nl2main_j1 lam28n5 ) ( * Nl2main_j2 lam28n6 ) ( * Nl2main_j3 lam28n7 ) ( - ( - RFN1_main_j ) ) ) 0 ) ) ( and ( >= lam29n0 0 ) ( >= lam29n1 0 ) ( >= lam29n2 0 ) ( >= lam29n3 0 ) ( >= lam29n4 0 ) ( >= lam29n5 0 ) ( >= lam29n6 0 ) ( >= lam29n7 0 ) ( > ( + ( * 1 lam29n0 ) ( * ( - 4 ) lam29n1 ) ( * 3 lam29n2 ) ( * 50001 lam29n3 ) ( * 50001 lam29n4 ) ( * Nl2CT1 lam29n5 ) ( * Nl2CT2 lam29n6 ) ( * Nl2CT3 lam29n7 ) ( - 1 ( + ( - ( + ( + RFN1_CT ( * RFN1_main_i 2 ) ) ( * RFN1_main_j 1 ) ) RFN1_CT ) 1 ) ) ) 0 ) ( = ( + ( * ( - 1 ) lam29n2 ) ( * ( - 1 ) lam29n3 ) ( * ( - 2 ) lam29n4 ) ( * Nl2main_i1 lam29n5 ) ( * Nl2main_i2 lam29n6 ) ( * Nl2main_i3 lam29n7 ) ( - ( - ( + 0 ( * RFN1_main_i 1 ) ) RFN1_main_i ) ) ) 0 ) ( = ( + ( * ( - 1 ) lam29n0 ) ( * 1 lam29n1 ) ( * 1 lam29n2 ) ( * 3 lam29n4 ) ( * Nl2main_j1 lam29n5 ) ( * Nl2main_j2 lam29n6 ) ( * Nl2main_j3 lam29n7 ) ( - ( - ( + 0 ( * RFN1_main_j 1 ) ) RFN1_main_j ) ) ) 0 ) ) ) ( and ( and ( >= lam32n0 0 ) ( >= lam32n1 0 ) ( >= lam32n2 0 ) ( >= lam32n3 0 ) ( >= lam32n4 0 ) ( >= lam32n5 0 ) ( >= lam32n6 0 ) ( > ( + ( * 1 lam32n0 ) ( * 5 lam32n1 ) ( * 50001 lam32n2 ) ( * 50001 lam32n3 ) ( * Nl2CT1 lam32n4 ) ( * Nl2CT2 lam32n5 ) ( * Nl2CT3 lam32n6 ) ( - 1 ( - RFN1_CT ) ) ) 0 ) ( = ( + ( * ( - 1 ) lam32n0 ) ( * ( - 1 ) lam32n2 ) ( * ( - 2 ) lam32n3 ) ( * Nl2main_i1 lam32n4 ) ( * Nl2main_i2 lam32n5 ) ( * Nl2main_i3 lam32n6 ) ( - ( - RFN1_main_i ) ) ) 0 ) ( = ( + ( * 1 lam32n0 ) ( * ( - 1 ) lam32n1 ) ( * 3 lam32n3 ) ( * Nl2main_j1 lam32n4 ) ( * Nl2main_j2 lam32n5 ) ( * Nl2main_j3 lam32n6 ) ( - ( - RFN1_main_j ) ) ) 0 ) ) ( and ( >= lam33n0 0 ) ( >= lam33n1 0 ) ( >= lam33n2 0 ) ( >= lam33n3 0 ) ( >= lam33n4 0 ) ( >= lam33n5 0 ) ( >= lam33n6 0 ) ( > ( + ( * 1 lam33n0 ) ( * 5 lam33n1 ) ( * 50001 lam33n2 ) ( * 50001 lam33n3 ) ( * Nl2CT1 lam33n4 ) ( * Nl2CT2 lam33n5 ) ( * Nl2CT3 lam33n6 ) ( - 1 ( + ( - ( + ( + RFN1_CT ( * RFN1_main_i 1 ) ) ( * RFN1_main_j ( - 1 ) ) ) RFN1_CT ) 1 ) ) ) 0 ) ( = ( + ( * ( - 1 ) lam33n0 ) ( * ( - 1 ) lam33n2 ) ( * ( - 2 ) lam33n3 ) ( * Nl2main_i1 lam33n4 ) ( * Nl2main_i2 lam33n5 ) ( * Nl2main_i3 lam33n6 ) ( - ( - ( + 0 ( * RFN1_main_i 1 ) ) RFN1_main_i ) ) ) 0 ) ( = ( + ( * 1 lam33n0 ) ( * ( - 1 ) lam33n1 ) ( * 3 lam33n3 ) ( * Nl2main_j1 lam33n4 ) ( * Nl2main_j2 lam33n5 ) ( * Nl2main_j3 lam33n6 ) ( - ( - ( + 0 ( * RFN1_main_j 1 ) ) RFN1_main_j ) ) ) 0 ) ) ) ) ) ( or ( and ( >= lam27n0 0 ) ( >= lam27n1 0 ) ( >= lam27n2 0 ) ( >= lam27n3 0 ) ( >= lam27n4 0 ) ( >= lam27n5 0 ) ( >= lam27n6 0 ) ( >= lam27n7 0 ) ( > ( + ( * 1 lam27n0 ) ( * ( - 4 ) lam27n1 ) ( * 3 lam27n2 ) ( * 50001 lam27n3 ) ( * 50001 lam27n4 ) ( * Nl2CT1 lam27n5 ) ( * Nl2CT2 lam27n6 ) ( * Nl2CT3 lam27n7 ) ( - 1 ) ) 0 ) ( = ( + ( * ( - 1 ) lam27n2 ) ( * ( - 1 ) lam27n3 ) ( * ( - 2 ) lam27n4 ) ( * Nl2main_i1 lam27n5 ) ( * Nl2main_i2 lam27n6 ) ( * Nl2main_i3 lam27n7 ) ) 0 ) ( = ( + ( * ( - 1 ) lam27n0 ) ( * 1 lam27n1 ) ( * 1 lam27n2 ) ( * 3 lam27n4 ) ( * Nl2main_j1 lam27n5 ) ( * Nl2main_j2 lam27n6 ) ( * Nl2main_j3 lam27n7 ) ) 0 ) ) ( and ( >= lam31n0 0 ) ( >= lam31n1 0 ) ( >= lam31n2 0 ) ( >= lam31n3 0 ) ( >= lam31n4 0 ) ( >= lam31n5 0 ) ( >= lam31n6 0 ) ( > ( + ( * 1 lam31n0 ) ( * 5 lam31n1 ) ( * 50001 lam31n2 ) ( * 50001 lam31n3 ) ( * Nl2CT1 lam31n4 ) ( * Nl2CT2 lam31n5 ) ( * Nl2CT3 lam31n6 ) ( - 1 ) ) 0 ) ( = ( + ( * ( - 1 ) lam31n0 ) ( * ( - 1 ) lam31n2 ) ( * ( - 2 ) lam31n3 ) ( * Nl2main_i1 lam31n4 ) ( * Nl2main_i2 lam31n5 ) ( * Nl2main_i3 lam31n6 ) ) 0 ) ( = ( + ( * 1 lam31n0 ) ( * ( - 1 ) lam31n1 ) ( * 3 lam31n3 ) ( * Nl2main_j1 lam31n4 ) ( * Nl2main_j2 lam31n5 ) ( * Nl2main_j3 lam31n6 ) ) 0 ) ) ) ))
(check-sat)
(exit)
